
  23    0


   0  12 2 3 4 5 6 7 8 18 19 20 21 22 
   9   6 17 16 13 12 10 9 
   9   5 15 14 13 11 10 
   1   3 13 10 9 
   6   3 12 11 9 
   4   2 12 11 
   2   1 10 
   7   1 9 
   3   1 23
   6   1 23
   1   1 23
   4   1 23
   7   1 23
   5   1 23
   3   1 23
   9   1 23
   4   1 23
   4   1 23
   6   1 23
   5   1 23
   6   1 23
   7   1 23
   0   0 
